cvc5/9519.corecstrs.readable_medium.smt2
(set-info :smt-lib-version 2.6)
(set-logic QF_SLIA)
(set-info :source |
Generated by: Andrew Reynolds
Generated on: 2018-04-25
Generator: Kudzu, converted to v2.6 by CVC4
Application: Symbolic Execution of Javascript
Target solver: Kaluza
Publications: "A symbolic execution framework for JavaScript" by P. Saxena, D. Akhawe, S. Hanna, F. Mao, S. McCamant, and D. Song, 2010.
|)
(set-info :license "https://creativecommons.org/licenses/by/4.0/")
(set-info :category "industrial")
(set-info :status unknown)



(declare-fun T_1 () Bool)
(declare-fun T_2 () Bool)
(declare-fun var_0xINPUT_456790 () String)
(declare-const rest_0_9229 String)
(declare-const rest_2_9364 String)
(assert (= T_1 (= var_0xINPUT_456790 "Search")))
(assert (= T_2 (not T_1)))
(assert T_2)
(assert (= (str.split_at var_0xINPUT_456790 "::" 0) "7stz"))
(assert (= (str.split_rest var_0xINPUT_456790 "::" 2) rest_0_9229))
(assert (= (str.split_rest var_0xINPUT_456790 "::" 1) "bgf0v"))
(assert (= (str.split_rest var_0xINPUT_456790 "::" 1) rest_2_9364))
(assert (= (str.split_rest var_0xINPUT_456790 "::" 2) "npsjf8lgr"))
(check-sat)

(get-model)
